% seed = 0

mint = 22;
% maxt = 75;

nActs = 32;
dur = [0,3,3,1,1,3,2,2,3,4,3,1,1,1,1,5,1,3,1,3,4,3,2,3,3,3,2,3,3,5,2,0];

nSkills = 12;
sreq = [| 0,0,0,0,0,0,0,0,0,0,0,0,
	| 0,0,1,0,0,1,0,0,0,0,0,0,
	| 0,0,0,0,2,1,0,0,0,0,0,0,
	| 1,0,1,0,0,0,0,0,0,0,0,0,
	| 0,0,0,0,0,0,0,0,0,0,1,1,
	| 0,0,0,0,0,1,0,0,0,0,0,0,
	| 0,0,0,0,1,1,1,1,0,0,1,0,
	| 0,0,0,0,0,0,0,1,0,0,0,0,
	| 0,1,0,0,0,0,1,0,0,0,0,0,
	| 0,0,0,0,0,0,0,0,0,0,0,1,
	| 0,0,0,0,1,0,0,0,0,0,0,0,
	| 0,0,0,0,1,0,0,0,0,0,0,0,
	| 0,0,0,1,1,0,0,1,0,0,0,1,
	| 0,1,0,0,0,1,0,0,1,0,2,0,
	| 0,0,0,0,0,3,0,1,1,0,0,0,
	| 0,0,0,0,0,0,0,1,0,0,1,0,
	| 0,0,0,0,0,1,1,1,0,0,0,0,
	| 0,0,1,0,0,1,0,0,0,0,0,1,
	| 0,0,1,0,1,1,0,1,1,0,0,0,
	| 1,0,1,0,0,0,0,0,1,0,1,0,
	| 0,0,0,0,0,0,0,0,0,0,1,0,
	| 0,0,0,0,0,2,0,0,0,0,0,0,
	| 0,0,1,0,0,0,0,0,1,1,1,0,
	| 0,1,0,0,0,2,0,0,0,0,0,1,
	| 0,0,0,0,0,2,0,1,0,0,0,1,
	| 0,0,2,0,0,1,0,0,0,0,0,0,
	| 0,0,1,1,0,0,0,0,0,0,0,0,
	| 0,0,0,0,0,0,0,0,0,0,1,0,
	| 0,0,0,0,0,0,1,1,1,0,0,0,
	| 0,0,0,0,0,1,0,0,0,0,1,0,
	| 0,0,0,0,0,0,0,1,0,0,0,0,
	| 0,0,0,0,0,0,0,0,0,0,0,0, |];

% SumOfsreq = 79;

nResources = 17;
mastery = [| false,true,true,false,false,false,false,false,false,false,false,false,
	| false,false,true,false,false,false,true,true,true,false,false,false,
	| false,false,false,false,true,true,false,false,false,false,false,false,
	| false,false,false,false,false,false,false,true,true,false,false,false,
	| false,false,false,false,false,false,false,false,false,false,true,true,
	| false,false,false,false,false,false,false,false,false,false,false,true,
	| false,false,false,false,false,false,true,true,true,true,true,true,
	| false,false,false,true,true,true,false,false,false,false,false,true,
	| false,false,false,false,false,false,true,true,true,false,false,false,
	| false,false,false,false,true,true,false,false,false,false,false,false,
	| true,true,true,false,false,false,false,false,false,false,true,true,
	| false,false,false,false,false,false,false,true,true,false,false,false,
	| false,false,false,false,false,false,true,true,true,false,false,false,
	| false,false,false,true,true,true,false,false,false,false,false,false,
	| false,false,false,false,false,true,false,false,false,false,false,false,
	| false,false,false,false,true,true,false,false,false,false,false,false,
	| false,false,false,false,false,false,false,false,true,false,false,false, |];

nPrecs = 48;
pred = [1,1,1,2,2,3,3,3,4,4,5,6,6,7,7,7,8,8,8,9,10,11,11,12,12,12,13,14,14,15,16,16,17,17,18,19,20,21,22,23,24,25,26,27,28,29,30,31];
succ = [2,3,4,5,7,12,5,6,20,13,29,11,15,9,10,8,29,30,23,14,21,28,16,17,31,24,16,19,23,22,25,18,19,21,27,22,29,25,28,26,28,30,27,31,30,32,32,32];

nUnrels = 283;
unpred = [2,2,2,2,2,2,2,2,2,2,2,2,3,3,3,3,3,3,3,3,3,3,4,4,4,4,4,4,4,4,4,4,4,4,4,4,4,4,4,4,5,5,5,5,5,5,5,5,5,5,5,5,5,5,5,5,5,5,5,5,5,5,5,5,5,6,6,6,6,6,6,6,6,6,6,6,6,6,6,6,7,7,7,7,7,7,7,7,7,8,8,8,8,8,8,8,8,8,8,8,8,8,8,8,8,8,9,9,9,9,9,9,9,9,9,9,9,9,9,10,10,10,10,10,10,10,10,10,10,10,10,10,10,10,10,10,10,11,11,11,11,11,11,11,11,11,11,11,11,11,12,12,12,12,12,12,12,12,12,12,13,13,13,13,13,13,13,13,13,13,13,13,14,14,14,14,14,14,14,14,14,15,15,15,15,15,15,15,15,15,15,15,15,15,16,16,16,16,16,16,16,16,16,16,17,17,17,17,17,17,17,17,18,18,18,18,18,18,18,18,18,18,18,19,19,19,19,19,19,19,19,19,20,20,20,20,20,20,20,20,20,20,21,21,21,21,21,21,21,21,22,22,22,22,22,22,22,23,23,23,23,23,24,24,24,24,24,25,25,25,25,25,26,26,26,27,27,27,28,28,29,29,30];
unsucc = [3,4,6,11,12,13,15,16,17,18,20,24,4,7,8,9,10,13,14,20,23,26,5,6,7,8,9,10,11,12,14,15,17,19,21,22,23,24,26,28,6,7,8,9,10,11,12,13,14,15,16,17,18,19,20,21,22,23,24,25,26,27,28,30,31,7,8,9,10,12,13,14,17,19,20,21,23,24,26,29,11,12,13,15,16,17,18,20,24,9,10,11,12,13,14,15,16,17,18,19,20,21,22,24,25,28,10,11,12,13,15,16,17,18,20,21,24,25,29,11,12,13,14,15,16,17,18,19,20,22,23,24,26,27,28,29,31,12,13,14,15,17,19,20,21,22,23,24,26,29,13,14,15,16,18,20,23,26,27,29,14,15,17,19,20,21,22,23,24,26,28,29,15,16,17,18,20,21,24,25,29,16,17,18,19,20,21,23,24,25,26,27,29,31,17,19,20,21,22,23,24,26,28,29,18,20,23,24,26,27,29,31,19,20,21,22,23,24,25,26,28,29,30,20,21,23,24,25,26,27,29,31,21,22,23,24,25,26,27,28,30,31,22,23,24,26,27,28,29,31,23,24,25,26,27,29,31,24,25,28,29,30,25,26,27,29,31,26,27,28,29,31,28,29,30,28,29,30,29,31,30,31,31];

USEFUL_RES = [{},
	{1,2,3,8,10,11,14,15,16},
	{3,8,10,14,15,16},
	{1,2,11},
	{5,6,7,8,11},
	{3,8,10,14,15,16},
	{2,3,4,5,7,8,9,10,11,12,13,14,15,16},
	{2,4,7,9,12,13},
	{1,2,7,9,11,13},
	{5,6,7,8,11},
	{3,8,10,14,16},
	{3,8,10,14,16},
	{2,3,4,5,6,7,8,9,10,11,12,13,14,16},
	{1,2,3,4,5,7,8,9,10,11,12,13,14,15,16,17},
	{2,3,4,7,8,9,10,12,13,14,15,16,17},
	{2,4,5,7,9,11,12,13},
	{2,3,4,7,8,9,10,12,13,14,15,16},
	{1,2,3,5,6,7,8,10,11,14,15,16},
	{1,2,3,4,7,8,9,10,11,12,13,14,15,16,17},
	{1,2,4,5,7,9,11,12,13,17},
	{5,7,11},
	{3,8,10,14,15,16},
	{1,2,4,5,7,9,11,12,13,17},
	{1,3,5,6,7,8,10,11,14,15,16},
	{2,3,4,5,6,7,8,9,10,11,12,13,14,15,16},
	{1,2,3,8,10,11,14,15,16},
	{1,2,8,11,14},
	{5,7,11},
	{2,4,7,9,12,13,17},
	{3,5,7,8,10,11,14,15,16},
	{2,4,7,9,12,13},
	{}];

POTENTIAL_ACT = [{2,4,9,14,18,19,20,23,24,26,27},
	{2,4,7,8,9,13,14,15,16,17,18,19,20,23,25,26,27,29,31},
	{2,3,6,7,11,12,13,14,15,17,18,19,22,24,25,26,30},
	{7,8,13,14,15,16,17,19,20,23,25,29,31},
	{5,7,10,13,14,16,18,20,21,23,24,25,28,30},
	{5,10,13,18,24,25},
	{5,7,8,9,10,13,14,15,16,17,18,19,20,21,23,24,25,28,29,30,31},
	{2,3,5,6,7,10,11,12,13,14,15,17,18,19,22,24,25,26,27,30},
	{7,8,9,13,14,15,16,17,19,20,23,25,29,31},
	{2,3,6,7,11,12,13,14,15,17,18,19,22,24,25,26,30},
	{2,4,5,7,9,10,13,14,16,18,19,20,21,23,24,25,26,27,28,30},
	{7,8,13,14,15,16,17,19,20,23,25,29,31},
	{7,8,9,13,14,15,16,17,19,20,23,25,29,31},
	{2,3,6,7,11,12,13,14,15,17,18,19,22,24,25,26,27,30},
	{2,3,6,7,14,15,17,18,19,22,24,25,26,30},
	{2,3,6,7,11,12,13,14,15,17,18,19,22,24,25,26,30},
	{14,15,19,20,23,29}];
